\* Probes_Placement_Model *\
Minimize
OBJ: __dummy
Subject To
CargaMediaM_0: Medicao_0 + Medicao_1 + Medicao_13 + Medicao_21 + Medicao_3
 + Medicao_5 + Medicao_9 - 0.125 carga_total_roteador0
 - 0.125 carga_total_roteador1 - 0.125 carga_total_roteador2
 - 0.125 carga_total_roteador3 - 0.125 carga_total_roteador4
 - 0.125 carga_total_roteador5 - 0.125 carga_total_roteador6
 - 0.125 carga_total_roteador7 + diferenca_carga_roteador0 >= 0
CargaMediaM_1: Medicao_29 + Medicao_30 + Medicao_32 + Medicao_34 + Medicao_38
 + Medicao_46 + Medicao_54 - 0.125 carga_total_roteador0
 - 0.125 carga_total_roteador1 - 0.125 carga_total_roteador2
 - 0.125 carga_total_roteador3 - 0.125 carga_total_roteador4
 - 0.125 carga_total_roteador5 - 0.125 carga_total_roteador6
 - 0.125 carga_total_roteador7 + diferenca_carga_roteador1 >= 0
CargaMediaM_2: Medicao_70 + Medicao_71 + Medicao_72 + Medicao_73 + Medicao_75
 + Medicao_79 + Medicao_83 - 0.125 carga_total_roteador0
 - 0.125 carga_total_roteador1 - 0.125 carga_total_roteador2
 - 0.125 carga_total_roteador3 - 0.125 carga_total_roteador4
 - 0.125 carga_total_roteador5 - 0.125 carga_total_roteador6
 - 0.125 carga_total_roteador7 + diferenca_carga_roteador2 >= 0
CargaMediaM_3: Medicao_101 + Medicao_91 + Medicao_92 + Medicao_93 + Medicao_95
 + Medicao_97 + Medicao_99 - 0.125 carga_total_roteador0
 - 0.125 carga_total_roteador1 - 0.125 carga_total_roteador2
 - 0.125 carga_total_roteador3 - 0.125 carga_total_roteador4
 - 0.125 carga_total_roteador5 - 0.125 carga_total_roteador6
 - 0.125 carga_total_roteador7 + diferenca_carga_roteador3 >= 0
CargaMediaM_4: Medicao_105 + Medicao_106 + Medicao_108 + Medicao_110
 + Medicao_114 + Medicao_122 + Medicao_130 - 0.125 carga_total_roteador0
 - 0.125 carga_total_roteador1 - 0.125 carga_total_roteador2
 - 0.125 carga_total_roteador3 - 0.125 carga_total_roteador4
 - 0.125 carga_total_roteador5 - 0.125 carga_total_roteador6
 - 0.125 carga_total_roteador7 + diferenca_carga_roteador4 >= 0
CargaMediaM_5: Medicao_146 + Medicao_147 + Medicao_148 + Medicao_149
 + Medicao_151 + Medicao_153 + Medicao_157 - 0.125 carga_total_roteador0
 - 0.125 carga_total_roteador1 - 0.125 carga_total_roteador2
 - 0.125 carga_total_roteador3 - 0.125 carga_total_roteador4
 - 0.125 carga_total_roteador5 - 0.125 carga_total_roteador6
 - 0.125 carga_total_roteador7 + diferenca_carga_roteador5 >= 0
CargaMediaM_6: Medicao_161 + Medicao_162 + Medicao_163 + Medicao_165
 + Medicao_167 + Medicao_171 + Medicao_179 - 0.125 carga_total_roteador0
 - 0.125 carga_total_roteador1 - 0.125 carga_total_roteador2
 - 0.125 carga_total_roteador3 - 0.125 carga_total_roteador4
 - 0.125 carga_total_roteador5 - 0.125 carga_total_roteador6
 - 0.125 carga_total_roteador7 + diferenca_carga_roteador6 >= 0
CargaMediaM_7: Medicao_187 + Medicao_188 + Medicao_190 + Medicao_194
 + Medicao_198 + Medicao_206 + Medicao_222 - 0.125 carga_total_roteador0
 - 0.125 carga_total_roteador1 - 0.125 carga_total_roteador2
 - 0.125 carga_total_roteador3 - 0.125 carga_total_roteador4
 - 0.125 carga_total_roteador5 - 0.125 carga_total_roteador6
 - 0.125 carga_total_roteador7 + diferenca_carga_roteador7 >= 0
CargaMedia_0: Medicao_0 + Medicao_1 + Medicao_13 + Medicao_21 + Medicao_3
 + Medicao_5 + Medicao_9 - 0.125 carga_total_roteador0
 - 0.125 carga_total_roteador1 - 0.125 carga_total_roteador2
 - 0.125 carga_total_roteador3 - 0.125 carga_total_roteador4
 - 0.125 carga_total_roteador5 - 0.125 carga_total_roteador6
 - 0.125 carga_total_roteador7 - diferenca_carga_roteador0 <= 0
CargaMedia_1: Medicao_29 + Medicao_30 + Medicao_32 + Medicao_34 + Medicao_38
 + Medicao_46 + Medicao_54 - 0.125 carga_total_roteador0
 - 0.125 carga_total_roteador1 - 0.125 carga_total_roteador2
 - 0.125 carga_total_roteador3 - 0.125 carga_total_roteador4
 - 0.125 carga_total_roteador5 - 0.125 carga_total_roteador6
 - 0.125 carga_total_roteador7 - diferenca_carga_roteador1 <= 0
CargaMedia_2: Medicao_70 + Medicao_71 + Medicao_72 + Medicao_73 + Medicao_75
 + Medicao_79 + Medicao_83 - 0.125 carga_total_roteador0
 - 0.125 carga_total_roteador1 - 0.125 carga_total_roteador2
 - 0.125 carga_total_roteador3 - 0.125 carga_total_roteador4
 - 0.125 carga_total_roteador5 - 0.125 carga_total_roteador6
 - 0.125 carga_total_roteador7 - diferenca_carga_roteador2 <= 0
CargaMedia_3: Medicao_101 + Medicao_91 + Medicao_92 + Medicao_93 + Medicao_95
 + Medicao_97 + Medicao_99 - 0.125 carga_total_roteador0
 - 0.125 carga_total_roteador1 - 0.125 carga_total_roteador2
 - 0.125 carga_total_roteador3 - 0.125 carga_total_roteador4
 - 0.125 carga_total_roteador5 - 0.125 carga_total_roteador6
 - 0.125 carga_total_roteador7 - diferenca_carga_roteador3 <= 0
CargaMedia_4: Medicao_105 + Medicao_106 + Medicao_108 + Medicao_110
 + Medicao_114 + Medicao_122 + Medicao_130 - 0.125 carga_total_roteador0
 - 0.125 carga_total_roteador1 - 0.125 carga_total_roteador2
 - 0.125 carga_total_roteador3 - 0.125 carga_total_roteador4
 - 0.125 carga_total_roteador5 - 0.125 carga_total_roteador6
 - 0.125 carga_total_roteador7 - diferenca_carga_roteador4 <= 0
CargaMedia_5: Medicao_146 + Medicao_147 + Medicao_148 + Medicao_149
 + Medicao_151 + Medicao_153 + Medicao_157 - 0.125 carga_total_roteador0
 - 0.125 carga_total_roteador1 - 0.125 carga_total_roteador2
 - 0.125 carga_total_roteador3 - 0.125 carga_total_roteador4
 - 0.125 carga_total_roteador5 - 0.125 carga_total_roteador6
 - 0.125 carga_total_roteador7 - diferenca_carga_roteador5 <= 0
CargaMedia_6: Medicao_161 + Medicao_162 + Medicao_163 + Medicao_165
 + Medicao_167 + Medicao_171 + Medicao_179 - 0.125 carga_total_roteador0
 - 0.125 carga_total_roteador1 - 0.125 carga_total_roteador2
 - 0.125 carga_total_roteador3 - 0.125 carga_total_roteador4
 - 0.125 carga_total_roteador5 - 0.125 carga_total_roteador6
 - 0.125 carga_total_roteador7 - diferenca_carga_roteador6 <= 0
CargaMedia_7: Medicao_187 + Medicao_188 + Medicao_190 + Medicao_194
 + Medicao_198 + Medicao_206 + Medicao_222 - 0.125 carga_total_roteador0
 - 0.125 carga_total_roteador1 - 0.125 carga_total_roteador2
 - 0.125 carga_total_roteador3 - 0.125 carga_total_roteador4
 - 0.125 carga_total_roteador5 - 0.125 carga_total_roteador6
 - 0.125 carga_total_roteador7 - diferenca_carga_roteador7 <= 0
Minimo_Sondas_Medicao_0: Medicao_0 >= 1
Minimo_Sondas_Medicao_1: Medicao_1 + Medicao_2 >= 1
Minimo_Sondas_Medicao_10: Medicao_34 + Medicao_35 + Medicao_36 + Medicao_37
 >= 1
Minimo_Sondas_Medicao_11: Medicao_38 + Medicao_39 + Medicao_40 + Medicao_41
 + Medicao_42 + Medicao_43 + Medicao_44 + Medicao_45 >= 1
Minimo_Sondas_Medicao_13: Medicao_54 + Medicao_55 + Medicao_56 + Medicao_57
 + Medicao_58 + Medicao_59 + Medicao_60 + Medicao_61 + Medicao_62 + Medicao_63
 + Medicao_64 + Medicao_65 + Medicao_66 + Medicao_67 + Medicao_68 + Medicao_69
 >= 1
Minimo_Sondas_Medicao_14: Medicao_70 >= 1
Minimo_Sondas_Medicao_15: Medicao_71 >= 1
Minimo_Sondas_Medicao_17: Medicao_73 + Medicao_74 >= 1
Minimo_Sondas_Medicao_18: Medicao_75 + Medicao_76 + Medicao_77 + Medicao_78
 >= 1
Minimo_Sondas_Medicao_2: Medicao_3 + Medicao_4 >= 1
Minimo_Sondas_Medicao_20: Medicao_83 + Medicao_84 + Medicao_85 + Medicao_86
 + Medicao_87 + Medicao_88 + Medicao_89 + Medicao_90 >= 1
Minimo_Sondas_Medicao_22: Medicao_92 >= 1
Minimo_Sondas_Medicao_23: Medicao_93 + Medicao_94 >= 1
Minimo_Sondas_Medicao_25: Medicao_97 + Medicao_98 >= 1
Minimo_Sondas_Medicao_27: Medicao_101 + Medicao_102 + Medicao_103
 + Medicao_104 >= 1
Minimo_Sondas_Medicao_3: Medicao_5 + Medicao_6 + Medicao_7 + Medicao_8 >= 1
Minimo_Sondas_Medicao_31: Medicao_110 + Medicao_111 + Medicao_112
 + Medicao_113 >= 1
Minimo_Sondas_Medicao_32: Medicao_114 + Medicao_115 + Medicao_116
 + Medicao_117 + Medicao_118 + Medicao_119 + Medicao_120 + Medicao_121 >= 1
Minimo_Sondas_Medicao_34: Medicao_130 + Medicao_131 + Medicao_132
 + Medicao_133 + Medicao_134 + Medicao_135 + Medicao_136 + Medicao_137
 + Medicao_138 + Medicao_139 + Medicao_140 + Medicao_141 + Medicao_142
 + Medicao_143 + Medicao_144 + Medicao_145 >= 1
Minimo_Sondas_Medicao_36: Medicao_147 >= 1
Minimo_Sondas_Medicao_39: Medicao_151 + Medicao_152 >= 1
Minimo_Sondas_Medicao_4: Medicao_10 + Medicao_11 + Medicao_12 + Medicao_9 >= 1
Minimo_Sondas_Medicao_43: Medicao_162 >= 1
Minimo_Sondas_Medicao_5: Medicao_13 + Medicao_14 + Medicao_15 + Medicao_16
 + Medicao_17 + Medicao_18 + Medicao_19 + Medicao_20 >= 1
Minimo_Sondas_Medicao_6: Medicao_21 + Medicao_22 + Medicao_23 + Medicao_24
 + Medicao_25 + Medicao_26 + Medicao_27 + Medicao_28 >= 1
Minimo_Sondas_Medicao_7: Medicao_29 >= 1
Minimo_Sondas_Medicao_8: Medicao_30 + Medicao_31 >= 1
Minimo_Sondas_Medicao_9: Medicao_32 + Medicao_33 >= 1
Bounds
 Medicao_0 <= 1
 Medicao_1 <= 1
 Medicao_10 <= 1
 Medicao_101 <= 1
 Medicao_102 <= 1
 Medicao_103 <= 1
 Medicao_104 <= 1
 Medicao_105 <= 1
 Medicao_106 <= 1
 Medicao_108 <= 1
 Medicao_11 <= 1
 Medicao_110 <= 1
 Medicao_111 <= 1
 Medicao_112 <= 1
 Medicao_113 <= 1
 Medicao_114 <= 1
 Medicao_115 <= 1
 Medicao_116 <= 1
 Medicao_117 <= 1
 Medicao_118 <= 1
 Medicao_119 <= 1
 Medicao_12 <= 1
 Medicao_120 <= 1
 Medicao_121 <= 1
 Medicao_122 <= 1
 Medicao_13 <= 1
 Medicao_130 <= 1
 Medicao_131 <= 1
 Medicao_132 <= 1
 Medicao_133 <= 1
 Medicao_134 <= 1
 Medicao_135 <= 1
 Medicao_136 <= 1
 Medicao_137 <= 1
 Medicao_138 <= 1
 Medicao_139 <= 1
 Medicao_14 <= 1
 Medicao_140 <= 1
 Medicao_141 <= 1
 Medicao_142 <= 1
 Medicao_143 <= 1
 Medicao_144 <= 1
 Medicao_145 <= 1
 Medicao_146 <= 1
 Medicao_147 <= 1
 Medicao_148 <= 1
 Medicao_149 <= 1
 Medicao_15 <= 1
 Medicao_151 <= 1
 Medicao_152 <= 1
 Medicao_153 <= 1
 Medicao_157 <= 1
 Medicao_16 <= 1
 Medicao_161 <= 1
 Medicao_162 <= 1
 Medicao_163 <= 1
 Medicao_165 <= 1
 Medicao_167 <= 1
 Medicao_17 <= 1
 Medicao_171 <= 1
 Medicao_179 <= 1
 Medicao_18 <= 1
 Medicao_187 <= 1
 Medicao_188 <= 1
 Medicao_19 <= 1
 Medicao_190 <= 1
 Medicao_194 <= 1
 Medicao_198 <= 1
 Medicao_2 <= 1
 Medicao_20 <= 1
 Medicao_206 <= 1
 Medicao_21 <= 1
 Medicao_22 <= 1
 Medicao_222 <= 1
 Medicao_23 <= 1
 Medicao_24 <= 1
 Medicao_25 <= 1
 Medicao_26 <= 1
 Medicao_27 <= 1
 Medicao_28 <= 1
 Medicao_29 <= 1
 Medicao_3 <= 1
 Medicao_30 <= 1
 Medicao_31 <= 1
 Medicao_32 <= 1
 Medicao_33 <= 1
 Medicao_34 <= 1
 Medicao_35 <= 1
 Medicao_36 <= 1
 Medicao_37 <= 1
 Medicao_38 <= 1
 Medicao_39 <= 1
 Medicao_4 <= 1
 Medicao_40 <= 1
 Medicao_41 <= 1
 Medicao_42 <= 1
 Medicao_43 <= 1
 Medicao_44 <= 1
 Medicao_45 <= 1
 Medicao_46 <= 1
 Medicao_5 <= 1
 Medicao_54 <= 1
 Medicao_55 <= 1
 Medicao_56 <= 1
 Medicao_57 <= 1
 Medicao_58 <= 1
 Medicao_59 <= 1
 Medicao_6 <= 1
 Medicao_60 <= 1
 Medicao_61 <= 1
 Medicao_62 <= 1
 Medicao_63 <= 1
 Medicao_64 <= 1
 Medicao_65 <= 1
 Medicao_66 <= 1
 Medicao_67 <= 1
 Medicao_68 <= 1
 Medicao_69 <= 1
 Medicao_7 <= 1
 Medicao_70 <= 1
 Medicao_71 <= 1
 Medicao_72 <= 1
 Medicao_73 <= 1
 Medicao_74 <= 1
 Medicao_75 <= 1
 Medicao_76 <= 1
 Medicao_77 <= 1
 Medicao_78 <= 1
 Medicao_79 <= 1
 Medicao_8 <= 1
 Medicao_83 <= 1
 Medicao_84 <= 1
 Medicao_85 <= 1
 Medicao_86 <= 1
 Medicao_87 <= 1
 Medicao_88 <= 1
 Medicao_89 <= 1
 Medicao_9 <= 1
 Medicao_90 <= 1
 Medicao_91 <= 1
 Medicao_92 <= 1
 Medicao_93 <= 1
 Medicao_94 <= 1
 Medicao_95 <= 1
 Medicao_97 <= 1
 Medicao_98 <= 1
 Medicao_99 <= 1
 __dummy = 0
End
